








































































































27 70 29 7 50 20 51 59 
56 32 34 65 5 35 24 
37 21 2 44 63 25 64 74 
73 1 57 71 40 12 49 30 
0 17 62 9 45 22 39 15 
69 23 3 6 31 11 52 55 
26 4 66 47 16 60 75 33 
10 19 54 43 67 46 38 
18 68 28 48 61 13 8 53 
72 42 41 58 76 14 36 
